p tw 44 48
1 2
2 13
3 4
4 5
4 19
5 34
6 7
7 8
8 9
9 10
10 11
11 12
12 14
13 24
14 15
15 16
16 17
17 18
17 34
18 19
19 20
20 21
21 22
22 23
23 25
24 35
25 26
26 27
27 28
28 29
28 30
29 38
30 31
31 32
32 33
33 34
33 6
34 36
35 40
36 37
37 38
38 39
40 41
41 42
42 43
43 44
44 3
44 6
